lattice_vector     12.71674175      0.00000000      0.00000000
lattice_vector      6.35837090     11.01302140      0.00000000
lattice_vector      0.00000000      0.00000000    100.00000000
atom       0.00000000      0.00000000      0.00000000 Cu1
atom       1.27167418      2.20260428      0.00000000 Cu1
atom       2.54334836      4.40520856      0.00000000 Cu1
atom       3.81502254      6.60781284      0.00000000 Cu1
atom       5.08669672      8.81041712      0.00000000 Cu1
atom       2.54334835     -0.00000000      0.00000000 Cu1
atom       3.81502253      2.20260428      0.00000000 Cu1
atom       5.08669671      4.40520856      0.00000000 Cu1
atom       6.35837089      6.60781284      0.00000000 Cu1
atom       7.63004507      8.81041712      0.00000000 Cu1
atom       5.08669670     -0.00000000      0.00000000 Cu1
atom       6.35837088      2.20260428      0.00000000 Cu1
atom       7.63004506      4.40520856      0.00000000 Cu1
atom       8.90171924      6.60781284      0.00000000 Cu1
atom      10.17339342      8.81041712      0.00000000 Cu1
atom       7.63004505     -0.00000000      0.00000000 Cu1
atom       8.90171923      2.20260428      0.00000000 Cu1
atom      10.17339341      4.40520856      0.00000000 Cu1
atom      11.44506759      6.60781284      0.00000000 Cu1
atom      12.71674177      8.81041712      0.00000000 Cu1
atom      10.17339340     -0.00000000      0.00000000 Cu1
atom      11.44506758      2.20260428      0.00000000 Cu1
atom      12.71674176      4.40520856      0.00000000 Cu1
atom      13.98841594      6.60781284      0.00000000 Cu1
atom      15.26009012      8.81041712      0.00000000 Cu1
atom       6.35837090      9.54461854      2.07663523 Cu1
atom       1.27167418      0.73420142      2.07663523 Cu1
atom       2.54334836      2.93680570      2.07663523 Cu1
atom       3.81502254      5.13940998      2.07663523 Cu1
atom       5.08669672      7.34201426      2.07663523 Cu1
atom       8.90171925      9.54461854      2.07663523 Cu1
atom       3.81502253      0.73420142      2.07663523 Cu1
atom       5.08669671      2.93680570      2.07663523 Cu1
atom       6.35837089      5.13940998      2.07663523 Cu1
atom       7.63004507      7.34201426      2.07663523 Cu1
atom      11.44506760      9.54461854      2.07663523 Cu1
atom       6.35837088      0.73420142      2.07663523 Cu1
atom       7.63004506      2.93680570      2.07663523 Cu1
atom       8.90171924      5.13940998      2.07663523 Cu1
atom      10.17339342      7.34201426      2.07663523 Cu1
atom      13.98841595      9.54461854      2.07663523 Cu1
atom       8.90171923      0.73420142      2.07663523 Cu1
atom      10.17339341      2.93680570      2.07663523 Cu1
atom      11.44506759      5.13940998      2.07663523 Cu1
atom      12.71674177      7.34201426      2.07663523 Cu1
atom      16.53176430      9.54461854      2.07663523 Cu1
atom      11.44506758      0.73420142      2.07663523 Cu1
atom      12.71674176      2.93680570      2.07663523 Cu1
atom      13.98841594      5.13940998      2.07663523 Cu1
atom      15.26009012      7.34201426      2.07663523 Cu1
atom       7.63004508     10.27881997      4.15327047 Cu1
atom       2.54334836      1.46840285      4.15327047 Cu1
atom       3.81502254      3.67100713      4.15327047 Cu1
atom       5.08669672      5.87361141      4.15327047 Cu1
atom       6.35837090      8.07621569      4.15327047 Cu1
atom      10.17339343     10.27881997      4.15327047 Cu1
atom       5.08669671      1.46840285      4.15327047 Cu1
atom       6.35837089      3.67100713      4.15327047 Cu1
atom       7.63004507      5.87361141      4.15327047 Cu1
atom       8.90171925      8.07621569      4.15327047 Cu1
atom      12.71674178     10.27881997      4.15327047 Cu1
atom       7.63004506      1.46840285      4.15327047 Cu1
atom       8.90171924      3.67100713      4.15327047 Cu1
atom      10.17339342      5.87361141      4.15327047 Cu1
atom      11.44506760      8.07621569      4.15327047 Cu1
atom      15.26009013     10.27881997      4.15327047 Cu1
atom      10.17339341      1.46840285      4.15327047 Cu1
atom      11.44506759      3.67100713      4.15327047 Cu1
atom      12.71674177      5.87361141      4.15327047 Cu1
atom      13.98841595      8.07621569      4.15327047 Cu1
atom      17.80343848     10.27881997      4.15327047 Cu1
atom      12.71674176      1.46840285      4.15327047 Cu1
atom      13.98841594      3.67100713      4.15327047 Cu1
atom      15.26009012      5.87361141      4.15327047 Cu1
atom      16.53176430      8.07621569      4.15327047 Cu1
atom       0.00000000      0.00000000      6.22990570 Cu1
atom       1.27167418      2.20260428      6.22990570 Cu1
atom       2.54334836      4.40520856      6.22990570 Cu1
atom       3.81502254      6.60781284      6.22990570 Cu1
atom       5.08669672      8.81041712      6.22990570 Cu1
atom       2.54334835     -0.00000000      6.22990570 Cu1
atom       3.81502253      2.20260428      6.22990570 Cu1
atom       5.08669671      4.40520856      6.22990570 Cu1
atom       6.35837089      6.60781284      6.22990570 Cu1
atom       7.63004507      8.81041712      6.22990570 Cu1
atom       5.08669670     -0.00000000      6.22990570 Cu1
atom       6.35837088      2.20260428      6.22990570 Cu1
atom       7.63004506      4.40520856      6.22990570 Cu1
atom       8.90171924      6.60781284      6.22990570 Cu1
atom      10.17339342      8.81041712      6.22990570 Cu1
atom       7.63004505     -0.00000000      6.22990570 Cu1
atom       8.90171923      2.20260428      6.22990570 Cu1
atom      10.17339341      4.40520856      6.22990570 Cu1
atom      11.44506759      6.60781284      6.22990570 Cu1
atom      12.71674177      8.81041712      6.22990570 Cu1
atom      10.17339340     -0.00000000      6.22990570 Cu1
atom      11.44506758      2.20260428      6.22990570 Cu1
atom      12.71674176      4.40520856      6.22990570 Cu1
atom      13.98841594      6.60781284      6.22990570 Cu1
atom      15.26009012      8.81041712      6.22990570 Cu1
atom       6.35837090      9.54461854      8.30654094 Cu1
atom       1.27167418      0.73420142      8.30654094 Cu1
atom       2.54334836      2.93680570      8.30654094 Cu1
atom       3.81502254      5.13940998      8.30654094 Cu1
atom       5.08669672      7.34201426      8.30654094 Cu1
atom       8.90171925      9.54461854      8.30654094 Cu1
atom       3.81502253      0.73420142      8.30654094 Cu1
atom       5.08669671      2.93680570      8.30654094 Cu1
atom       6.35837089      5.13940998      8.30654094 Cu1
atom       7.63004507      7.34201426      8.30654094 Cu1
atom      11.44506760      9.54461854      8.30654094 Cu1
atom       6.35837088      0.73420142      8.30654094 Cu1
atom       7.63004506      2.93680570      8.30654094 Cu1
atom       8.90171924      5.13940998      8.30654094 Cu1
atom      10.17339342      7.34201426      8.30654094 Cu1
atom      13.98841595      9.54461854      8.30654094 Cu1
atom       8.90171923      0.73420142      8.30654094 Cu1
atom      10.17339341      2.93680570      8.30654094 Cu1
atom      11.44506759      5.13940998      8.30654094 Cu1
atom      12.71674177      7.34201426      8.30654094 Cu1
atom      16.53176430      9.54461854      8.30654094 Cu1
atom      11.44506758      0.73420142      8.30654094 Cu1
atom      12.71674176      2.93680570      8.30654094 Cu1
atom      13.98841594      5.13940998      8.30654094 Cu1
atom      15.26009012      7.34201426      8.30654094 Cu1
atom       7.63004508     10.27881997     10.38317617 Cu1
atom       2.54334836      1.46840285     10.38317617 Cu1
atom       3.81502254      3.67100713     10.38317617 Cu1
atom       5.08669672      5.87361141     10.38317617 Cu1
atom       6.35837090      8.07621569     10.38317617 Cu1
atom      10.17339343     10.27881997     10.38317617 Cu1
atom       5.08669671      1.46840285     10.38317617 Cu1
atom       6.35837089      3.67100713     10.38317617 Cu1
atom       7.63004507      5.87361141     10.38317617 Cu1
atom       8.90171925      8.07621569     10.38317617 Cu1
atom      12.71674178     10.27881997     10.38317617 Cu1
atom       7.63004506      1.46840285     10.38317617 Cu1
atom       8.90171924      3.67100713     10.38317617 Cu1
atom      10.17339342      5.87361141     10.38317617 Cu1
atom      11.44506760      8.07621569     10.38317617 Cu1
atom      15.26009013     10.27881997     10.38317617 Cu1
atom      10.17339341      1.46840285     10.38317617 Cu1
atom      11.44506759      3.67100713     10.38317617 Cu1
atom      12.71674177      5.87361141     10.38317617 Cu1
atom      13.98841595      8.07621569     10.38317617 Cu1
atom      17.80343848     10.27881997     10.38317617 Cu1
atom      12.71674176      1.46840285     10.38317617 Cu1
atom      13.98841594      3.67100713     10.38317617 Cu1
atom      15.26009012      5.87361141     10.38317617 Cu1
atom      16.53176430      8.07621569     10.38317617 Cu1
atom       0.00871141     -0.00093050     12.42521266 Cu1
atom       1.27160455      2.19865229     12.43198452 Cu1
atom       2.53683393      4.39656217     12.43700733 Cu1
atom       3.82126049      6.59997201     12.43986121 Cu1
atom       5.09181896      8.81741915     12.42970161 Cu1
atom       2.54519016     -0.00009852     12.42849368 Cu1
atom       3.82935271      2.20716750     12.46712741 Cu1
atom       5.08727559      4.38935969     12.48015203 Cu1
atom       6.37433203      6.60791935     12.48189708 Cu1
atom       7.63180146      8.79325596     12.46750218 Cu1
atom       5.08989154      0.00012401     12.43829737 Cu1
atom       6.35066201      2.21170765     12.47195897 Cu1
atom       7.61213409      4.40691498     12.45377983 Cu1
atom       8.88851620      6.61387762     12.46858998 Cu1
atom      10.17227346      8.80837868     12.43900680 Cu1
atom       7.64441424      0.01287671     12.47340462 Cu1
atom       8.91836032      2.19008020     12.48178493 Cu1
atom      10.17354642      4.40311963     12.49602682 Cu1
atom      11.44123856      6.58712044     12.46614129 Cu1
atom      12.71440003      8.80966845     12.43536166 Cu1
atom      10.15833863      0.00391159     12.46367699 Cu1
atom      11.44407156      2.20263136     12.44372426 Cu1
atom      12.69621054      4.41142793     12.47006810 Cu1
atom      13.98912922      6.60498541     12.44323437 Cu1
atom      15.25992595      8.80781379     12.44255916 Cu1
atom       6.35166222      9.56479430     14.49965291 Cu1
atom       1.27923832      0.72760870     14.50984963 Cu1
atom       2.52377751      2.92899908     14.50137121 Cu1
atom       3.77704734      5.14881619     14.49654658 Cu1
atom       5.05406621      7.38091093     14.47149019 Cu1
atom       8.91423311      9.56530288     14.50049798 Cu1
atom       3.79956610      0.71497098     14.50138234 Cu1
atom       5.05236532      2.90302353     14.62600609 Cu1
atom       6.28918311      5.16221150     14.53494442 Cu1
atom       7.61596411      7.40996476     14.63499144 Cu1
atom      11.44818751      9.54028235     14.51402320 Cu1
atom       6.33903221      0.70033546     14.49044217 Cu1
atom       7.65467252      2.91848340     14.45610665 Cu1
atom       8.87263930      5.15298908     14.45975212 Cu1
atom      10.19149541      7.37285787     14.48495615 Cu1
atom      13.98045279      9.51484790     14.50167275 Cu1
atom       8.91891649      0.66350251     14.63254335 Cu1
atom      10.24373289      2.89868396     14.53257959 Cu1
atom      11.47337253      5.16436008     14.62667934 Cu1
atom      12.73613391      7.35076422     14.50345947 Cu1
atom      16.53262190      9.51548725     14.50467455 Cu1
atom      11.47697055      0.69111367     14.46878804 Cu1
atom      12.75280476      2.92216950     14.49331022 Cu1
atom      14.00555235      5.14673445     14.50751809 Cu1
atom      15.25422912      7.34020464     14.52312611 Cu1
atom      11.36845140      4.67442139     16.85481170 C
atom      10.51519291      5.78711824     16.82589675 C
atom      11.02069684      3.30165149     16.73395460 C
atom       9.08642113      5.81071097     16.71979371 C
atom       9.72659564      2.70631025     16.67379754 C
atom       8.34991287      7.05831179     16.81375733 C
atom       9.54821226      1.26759361     16.77212078 C
atom       8.12265108      4.73705063     16.61975250 C
atom       8.40399415      3.30984892     16.62255300 C
atom       6.97874574      6.77822118     16.77704400 C
atom       8.17586674      0.98991994     16.81486104 C
atom       6.79971189      5.34097283     16.67511505 C
atom       7.44064303      2.23665170     16.72368859 C
atom       5.50482356      4.74531901     16.73448638 C1
atom       6.01074657      2.26004187     16.82654185 C
atom       5.15747135      3.37221709     16.85591805 C
atom      12.41413199      4.87432787     17.09434595 H
atom      10.97544105      6.75209253     17.04804210 H
atom      11.83733024      2.59624642     16.90868546 H
atom       8.80388887      8.00986219     17.07644124 H
atom      10.35142218      0.57572721     17.01271836 H
atom       6.17453423      7.47111246     17.01192293 H
atom       7.72187274      0.03759749     17.07488659 H
atom       4.68845512      5.45041132     16.91150097 H
atom       5.55027557      1.29498035     17.04823120 H
atom       4.11169487      3.17212903     17.09484581 H
